************************************************************************
file with basedata            : mm6_.bas
initial value random generator: 1329841971
************************************************************************
projects                      :  1
jobs (incl. supersource/sink ):  12
horizon                       :  70
RESOURCES
  - renewable                 :  2   R
  - nonrenewable              :  2   N
  - doubly constrained        :  0   D
************************************************************************
PROJECT INFORMATION:
pronr.  #jobs rel.date duedate tardcost  MPM-Time
    1     10      0       14        9       14
************************************************************************
PRECEDENCE RELATIONS:
jobnr.    #modes  #successors   successors
   0        1          3           1   2   3
   1        3          2           6   9
   2        3          1          10
   3        3          3           4   6   9
   4        3          2           5   8
   5        3          1           7
   6        3          2           7   8
   7        3          1          10
   8        3          1          11
   9        3          1          11
  10        3          1          11
  11        1          0        
************************************************************************
REQUESTS/DURATIONS:
jobnr. mode duration  R 1  R 2  R 3  R 4  E(W 1)  E(W 2)  E(W 3)
------------------------------------------------------------------------
  0      1     0       0    0    0    0     0       0       0
  1      1     1       0    4    8   10     4       8      10
  2      1     1       7    0    8    7     7       8       7
  3      1     2       6    0    8    9    12      16      18
  4      1     2       0    4   10    8     8      20      16
  5      1     1       8    0    8    7     8       8       7
  6      1     2       0    6    4    5    12       8      10
  7      1     4       0    3    3    8    12      12      32
  8      1     1       0    8    5    6     8       5       6
  9      1     3       0    4    9    6    12      27      18
 10      1     5       5    0    4    5    25      20      25
 11      1     0       0    0    0    0     0       0       0
************************************************************************
RESOURCEAVAILABILITIES:
  R 1  R 2  R 3
   12   57   60
************************************************************************
RESOURCE LIMITS:
jobnr.  l(R 1)  u(R 1)  l(R 2)  u(R 2)  l(R 3)  u(R 3)
------------------------------------------------------------------------
  0        0       0       0       0       0       0
  1        2       4       4       8       5      10
  2        4       7       4       8       4       7
  3        3       6       4       8       5       9
  4        2       4       5      10       4       8
  5        4       8       4       8       4       7
  6        3       6       2       4       3       5
  7        2       3       2       3       4       8
  8        4       8       3       5       3       6
  9        2       4       5       9       3       6
 10        3       5       2       4       3       5
 11        0       0       0       0       0       0
************************************************************************
SCENARIOS:
------------------------------------------------------------------------
RESOURCE k = 1
s = 1: (0, 5, 4, 11, 7, 8, 8, 17, 9, 10, 22, 0)
s = 2: (0, 5, 9, 13, 7, 7, 10, 16, 12, 8, 18, 0)
s = 3: (0, 5, 8, 8, 15, 6, 10, 11, 10, 15, 13, 0)
s = 4: (0, 5, 6, 15, 9, 7, 8, 12, 11, 14, 19, 0)
s = 5: (0, 3, 6, 11, 11, 7, 13, 9, 11, 16, 35, 0)
s = 6: (0, 6, 7, 15, 7, 5, 14, 10, 10, 16, 19, 0)
s = 7: (0, 3, 11, 11, 8, 8, 13, 7, 9, 15, 25, 0)
s = 8: (0, 4, 9, 11, 6, 9, 16, 12, 7, 11, 26, 0)
s = 9: (0, 5, 5, 12, 10, 9, 9, 9, 6, 12, 45, 0)
s = 10: (0, 4, 6, 17, 8, 7, 9, 11, 10, 15, 20, 0)
s = 11: (0, 3, 6, 12, 7, 7, 10, 9, 9, 18, 19, 0)
s = 12: (0, 4, 9, 12, 6, 11, 8, 14, 9, 9, 28, 0)
s = 13: (0, 5, 10, 13, 6, 9, 8, 16, 8, 12, 22, 0)
s = 14: (0, 5, 7, 14, 7, 6, 13, 9, 9, 16, 19, 0)
s = 15: (0, 6, 5, 17, 9, 5, 13, 10, 13, 14, 42, 0)
s = 16: (0, 4, 6, 13, 6, 9, 8, 9, 13, 13, 24, 0)
s = 17: (0, 3, 8, 12, 7, 10, 15, 14, 5, 10, 25, 0)
s = 18: (0, 4, 9, 21, 12, 8, 14, 7, 11, 14, 32, 0)
s = 19: (0, 5, 5, 9, 13, 10, 10, 12, 10, 13, 26, 0)
s = 20: (0, 3, 9, 10, 8, 7, 13, 11, 9, 8, 26, 0)
s = 21: (0, 4, 8, 11, 7, 7, 19, 12, 9, 9, 18, 0)
s = 22: (0, 4, 6, 11, 16, 9, 9, 12, 7, 15, 25, 0)
s = 23: (0, 3, 5, 18, 9, 6, 8, 10, 7, 19, 22, 0)
s = 24: (0, 5, 7, 12, 9, 10, 9, 22, 6, 8, 29, 0)
s = 25: (0, 4, 7, 14, 5, 7, 12, 15, 9, 8, 15, 0)
s = 26: (0, 3, 7, 10, 6, 8, 16, 9, 13, 17, 15, 0)
s = 27: (0, 4, 7, 11, 6, 8, 14, 9, 8, 8, 27, 0)
s = 28: (0, 5, 4, 14, 9, 8, 9, 15, 9, 8, 17, 0)
s = 29: (0, 5, 11, 14, 8, 14, 11, 17, 8, 10, 26, 0)
s = 30: (0, 6, 8, 9, 7, 10, 16, 15, 6, 10, 16, 0)
s = 31: (0, 4, 8, 18, 10, 9, 13, 20, 13, 13, 26, 0)
s = 32: (0, 3, 8, 15, 6, 13, 12, 10, 5, 12, 18, 0)
s = 33: (0, 3, 6, 15, 13, 5, 10, 16, 9, 18, 30, 0)
s = 34: (0, 4, 12, 13, 6, 7, 11, 14, 8, 18, 18, 0)
s = 35: (0, 3, 4, 18, 12, 10, 14, 10, 7, 14, 15, 0)
s = 36: (0, 4, 5, 9, 7, 7, 12, 14, 7, 8, 29, 0)
s = 37: (0, 6, 8, 13, 7, 13, 13, 16, 5, 12, 14, 0)
s = 38: (0, 6, 12, 15, 8, 10, 16, 13, 12, 11, 16, 0)
s = 39: (0, 7, 7, 17, 6, 8, 9, 15, 7, 19, 21, 0)
s = 40: (0, 6, 7, 18, 7, 9, 17, 17, 8, 12, 30, 0)
s = 41: (0, 6, 6, 12, 9, 10, 8, 14, 12, 9, 19, 0)
s = 42: (0, 4, 9, 11, 7, 8, 10, 14, 8, 18, 21, 0)
s = 43: (0, 5, 7, 10, 7, 9, 11, 13, 8, 7, 20, 0)
s = 44: (0, 5, 5, 17, 14, 6, 8, 11, 9, 20, 31, 0)
s = 45: (0, 4, 12, 8, 7, 9, 13, 19, 7, 11, 27, 0)
s = 46: (0, 4, 7, 13, 12, 9, 9, 18, 12, 11, 21, 0)
s = 47: (0, 5, 8, 10, 6, 9, 15, 9, 6, 16, 27, 0)
s = 48: (0, 5, 6, 12, 6, 9, 14, 17, 6, 13, 29, 0)
s = 49: (0, 6, 5, 11, 6, 6, 15, 13, 10, 11, 27, 0)
s = 50: (0, 4, 7, 16, 13, 8, 13, 11, 8, 11, 16, 0)
s = 51: (0, 3, 8, 20, 5, 6, 11, 14, 14, 14, 16, 0)
s = 52: (0, 5, 12, 15, 7, 8, 10, 13, 8, 8, 24, 0)
s = 53: (0, 3, 8, 18, 10, 6, 12, 8, 10, 9, 24, 0)
s = 54: (0, 3, 6, 11, 8, 11, 10, 13, 10, 9, 16, 0)
s = 55: (0, 6, 5, 11, 8, 8, 10, 13, 6, 12, 31, 0)
s = 56: (0, 4, 8, 12, 10, 9, 7, 15, 5, 7, 21, 0)
s = 57: (0, 3, 10, 11, 7, 9, 9, 7, 7, 16, 24, 0)
s = 58: (0, 6, 8, 10, 8, 7, 13, 13, 12, 19, 22, 0)
s = 59: (0, 4, 10, 11, 6, 6, 17, 13, 6, 13, 27, 0)
s = 60: (0, 6, 8, 21, 10, 13, 13, 10, 9, 13, 24, 0)
s = 61: (0, 5, 13, 15, 6, 5, 14, 9, 9, 15, 29, 0)
s = 62: (0, 3, 7, 7, 14, 7, 15, 9, 8, 11, 29, 0)
s = 63: (0, 3, 7, 13, 9, 13, 10, 18, 10, 15, 24, 0)
s = 64: (0, 4, 5, 16, 9, 9, 12, 16, 6, 7, 19, 0)
s = 65: (0, 5, 9, 12, 9, 5, 19, 13, 8, 8, 19, 0)
s = 66: (0, 3, 5, 13, 9, 12, 9, 14, 9, 12, 20, 0)
s = 67: (0, 7, 6, 15, 12, 6, 10, 18, 6, 16, 27, 0)
s = 68: (0, 6, 7, 12, 9, 6, 17, 9, 6, 13, 18, 0)
s = 69: (0, 6, 6, 17, 8, 6, 14, 19, 9, 11, 15, 0)
s = 70: (0, 5, 9, 12, 8, 6, 16, 11, 6, 8, 34, 0)
s = 71: (0, 7, 8, 17, 8, 12, 15, 7, 6, 10, 23, 0)
s = 72: (0, 4, 6, 20, 9, 7, 16, 9, 10, 17, 36, 0)
s = 73: (0, 3, 5, 18, 6, 9, 11, 8, 11, 16, 22, 0)
s = 74: (0, 7, 6, 12, 10, 11, 8, 15, 8, 19, 19, 0)
s = 75: (0, 3, 7, 10, 8, 6, 13, 18, 9, 15, 28, 0)
s = 76: (0, 5, 8, 9, 5, 6, 11, 11, 8, 15, 22, 0)
s = 77: (0, 4, 6, 13, 13, 10, 15, 14, 12, 9, 23, 0)
s = 78: (0, 4, 6, 14, 7, 10, 19, 8, 7, 12, 40, 0)
s = 79: (0, 3, 10, 7, 11, 7, 12, 10, 6, 14, 28, 0)
s = 80: (0, 3, 10, 8, 13, 9, 10, 17, 7, 13, 17, 0)
s = 81: (0, 3, 6, 18, 6, 14, 15, 13, 8, 17, 29, 0)
s = 82: (0, 3, 6, 13, 8, 6, 13, 9, 7, 10, 26, 0)
s = 83: (0, 4, 9, 12, 7, 13, 9, 17, 7, 15, 16, 0)
s = 84: (0, 3, 6, 14, 8, 9, 15, 7, 9, 10, 19, 0)
s = 85: (0, 3, 5, 12, 5, 10, 18, 11, 6, 9, 27, 0)
s = 86: (0, 4, 6, 16, 13, 7, 8, 20, 10, 19, 21, 0)
s = 87: (0, 4, 8, 10, 9, 10, 11, 18, 11, 13, 45, 0)
s = 88: (0, 4, 9, 17, 9, 6, 13, 14, 12, 12, 27, 0)
s = 89: (0, 3, 6, 11, 7, 7, 15, 17, 11, 9, 20, 0)
s = 90: (0, 3, 6, 7, 8, 11, 15, 14, 6, 17, 31, 0)
s = 91: (0, 3, 5, 14, 10, 7, 13, 10, 11, 11, 27, 0)
s = 92: (0, 4, 6, 14, 8, 8, 14, 9, 8, 20, 25, 0)
s = 93: (0, 5, 10, 17, 9, 9, 19, 8, 9, 11, 36, 0)
s = 94: (0, 7, 7, 17, 9, 8, 11, 10, 9, 13, 21, 0)
s = 95: (0, 4, 9, 15, 13, 7, 12, 15, 7, 15, 20, 0)
s = 96: (0, 3, 10, 8, 7, 14, 8, 19, 6, 15, 20, 0)
s = 97: (0, 5, 11, 14, 7, 10, 16, 13, 9, 11, 16, 0)
s = 98: (0, 3, 6, 13, 7, 7, 12, 10, 6, 18, 23, 0)
s = 99: (0, 5, 7, 11, 8, 10, 13, 18, 9, 12, 34, 0)
s = 100: (0, 3, 8, 12, 8, 8, 13, 20, 7, 12, 37, 0)
s = 101: (0, 4, 5, 11, 7, 12, 14, 12, 7, 15, 18, 0)
s = 102: (0, 4, 7, 9, 10, 15, 18, 10, 8, 20, 17, 0)
s = 103: (0, 3, 8, 9, 9, 9, 16, 12, 11, 14, 20, 0)
s = 104: (0, 5, 7, 9, 8, 7, 9, 10, 10, 14, 25, 0)
s = 105: (0, 4, 8, 14, 10, 10, 8, 10, 7, 16, 23, 0)
s = 106: (0, 6, 6, 18, 9, 10, 10, 11, 7, 13, 31, 0)
s = 107: (0, 3, 6, 13, 7, 10, 11, 7, 11, 10, 19, 0)
s = 108: (0, 3, 9, 8, 7, 5, 9, 17, 10, 12, 30, 0)
s = 109: (0, 6, 8, 13, 14, 10, 9, 9, 9, 15, 18, 0)
s = 110: (0, 5, 7, 7, 8, 8, 9, 20, 6, 10, 27, 0)
s = 111: (0, 4, 5, 14, 9, 9, 11, 10, 12, 16, 39, 0)
s = 112: (0, 5, 6, 10, 5, 11, 8, 15, 8, 15, 24, 0)
s = 113: (0, 4, 6, 9, 11, 9, 16, 15, 5, 7, 33, 0)
s = 114: (0, 3, 6, 18, 13, 9, 14, 12, 6, 12, 25, 0)
s = 115: (0, 3, 7, 14, 12, 9, 18, 10, 11, 16, 24, 0)
s = 116: (0, 4, 6, 8, 7, 9, 8, 10, 7, 9, 32, 0)
s = 117: (0, 5, 8, 18, 7, 6, 13, 12, 12, 15, 18, 0)
s = 118: (0, 5, 9, 10, 12, 10, 22, 10, 7, 12, 15, 0)
s = 119: (0, 5, 7, 19, 8, 10, 14, 11, 5, 14, 21, 0)
s = 120: (0, 8, 7, 17, 8, 8, 8, 10, 7, 9, 27, 0)
s = 121: (0, 4, 10, 11, 9, 9, 19, 13, 10, 9, 24, 0)
s = 122: (0, 6, 7, 11, 12, 7, 9, 12, 9, 10, 18, 0)
s = 123: (0, 4, 7, 9, 9, 14, 14, 19, 6, 9, 22, 0)
s = 124: (0, 5, 5, 8, 8, 7, 11, 10, 8, 14, 31, 0)
s = 125: (0, 4, 7, 14, 6, 12, 14, 13, 11, 16, 27, 0)
s = 126: (0, 4, 6, 8, 7, 9, 17, 15, 8, 10, 27, 0)
s = 127: (0, 4, 7, 9, 7, 7, 14, 15, 5, 12, 46, 0)
s = 128: (0, 3, 7, 12, 8, 8, 13, 11, 5, 10, 27, 0)
s = 129: (0, 4, 6, 10, 7, 8, 11, 10, 8, 8, 24, 0)
s = 130: (0, 3, 7, 9, 10, 7, 8, 12, 7, 15, 47, 0)
s = 131: (0, 3, 5, 13, 13, 7, 10, 18, 9, 16, 32, 0)
s = 132: (0, 4, 9, 9, 7, 10, 10, 14, 6, 10, 32, 0)
s = 133: (0, 3, 5, 12, 9, 8, 10, 15, 7, 15, 28, 0)
s = 134: (0, 4, 6, 9, 7, 6, 20, 18, 8, 9, 30, 0)
s = 135: (0, 4, 8, 16, 9, 11, 14, 14, 8, 13, 18, 0)
s = 136: (0, 7, 7, 16, 9, 7, 9, 11, 15, 17, 26, 0)
s = 137: (0, 3, 8, 16, 7, 7, 8, 17, 8, 17, 26, 0)
s = 138: (0, 6, 6, 17, 6, 8, 16, 11, 13, 18, 22, 0)
s = 139: (0, 3, 12, 14, 6, 11, 10, 15, 6, 11, 33, 0)
s = 140: (0, 5, 8, 14, 6, 6, 12, 15, 6, 17, 45, 0)
s = 141: (0, 6, 13, 12, 8, 8, 9, 15, 8, 12, 22, 0)
s = 142: (0, 3, 6, 17, 9, 9, 9, 9, 5, 11, 28, 0)
s = 143: (0, 3, 7, 7, 10, 9, 12, 14, 8, 19, 14, 0)
s = 144: (0, 6, 7, 8, 6, 16, 11, 16, 8, 15, 28, 0)
s = 145: (0, 6, 7, 14, 12, 12, 8, 13, 8, 9, 17, 0)
s = 146: (0, 4, 8, 7, 7, 5, 13, 7, 6, 12, 24, 0)
s = 147: (0, 4, 8, 22, 7, 6, 22, 14, 12, 14, 21, 0)
s = 148: (0, 5, 6, 8, 6, 10, 9, 11, 9, 18, 20, 0)
s = 149: (0, 5, 7, 9, 8, 11, 12, 15, 11, 11, 26, 0)
s = 150: (0, 4, 8, 10, 11, 8, 11, 10, 14, 10, 30, 0)
s = 151: (0, 5, 5, 10, 7, 12, 8, 11, 9, 8, 28, 0)
s = 152: (0, 4, 7, 15, 7, 7, 10, 10, 7, 19, 20, 0)
s = 153: (0, 4, 10, 11, 5, 8, 8, 10, 8, 12, 18, 0)
s = 154: (0, 4, 7, 14, 7, 9, 11, 9, 11, 20, 26, 0)
s = 155: (0, 4, 8, 14, 8, 8, 14, 10, 8, 11, 23, 0)
s = 156: (0, 4, 9, 9, 6, 8, 10, 18, 11, 10, 14, 0)
s = 157: (0, 5, 6, 19, 6, 8, 10, 13, 7, 12, 28, 0)
s = 158: (0, 4, 6, 14, 7, 8, 14, 14, 6, 14, 20, 0)
s = 159: (0, 7, 5, 13, 10, 9, 11, 18, 10, 11, 25, 0)
s = 160: (0, 4, 6, 16, 9, 7, 13, 7, 8, 17, 23, 0)
s = 161: (0, 5, 5, 23, 12, 6, 8, 17, 12, 7, 20, 0)
s = 162: (0, 4, 7, 22, 9, 8, 16, 18, 9, 14, 18, 0)
s = 163: (0, 3, 6, 15, 11, 7, 15, 17, 7, 16, 34, 0)
s = 164: (0, 4, 8, 15, 8, 7, 14, 11, 11, 15, 20, 0)
s = 165: (0, 3, 5, 9, 8, 8, 11, 12, 8, 14, 35, 0)
s = 166: (0, 4, 6, 10, 8, 8, 8, 11, 6, 8, 16, 0)
s = 167: (0, 6, 7, 16, 6, 10, 15, 8, 7, 7, 33, 0)
s = 168: (0, 6, 7, 17, 7, 6, 15, 15, 7, 11, 33, 0)
s = 169: (0, 3, 12, 11, 11, 10, 12, 15, 14, 18, 25, 0)
s = 170: (0, 6, 9, 9, 10, 14, 17, 16, 11, 9, 26, 0)
s = 171: (0, 5, 6, 12, 5, 9, 15, 16, 15, 15, 30, 0)
s = 172: (0, 5, 10, 13, 12, 7, 10, 14, 12, 8, 20, 0)
s = 173: (0, 5, 6, 8, 10, 13, 11, 10, 8, 12, 28, 0)
s = 174: (0, 7, 10, 12, 7, 7, 20, 15, 11, 14, 30, 0)
s = 175: (0, 3, 9, 13, 8, 12, 10, 9, 12, 15, 20, 0)
s = 176: (0, 5, 6, 11, 6, 9, 9, 17, 8, 10, 31, 0)
s = 177: (0, 4, 5, 10, 6, 11, 14, 8, 11, 12, 37, 0)
s = 178: (0, 4, 5, 11, 7, 9, 18, 14, 8, 13, 20, 0)
s = 179: (0, 4, 8, 16, 7, 7, 12, 18, 7, 15, 33, 0)
s = 180: (0, 3, 9, 13, 5, 11, 10, 13, 7, 15, 25, 0)
s = 181: (0, 4, 8, 17, 9, 6, 9, 12, 6, 10, 27, 0)
s = 182: (0, 5, 6, 9, 10, 11, 11, 18, 11, 13, 19, 0)
s = 183: (0, 4, 6, 17, 11, 7, 13, 15, 7, 19, 39, 0)
s = 184: (0, 4, 6, 9, 11, 9, 11, 12, 6, 14, 23, 0)
s = 185: (0, 5, 6, 11, 7, 7, 21, 13, 5, 19, 40, 0)
s = 186: (0, 6, 9, 11, 7, 12, 13, 14, 9, 13, 47, 0)
s = 187: (0, 3, 6, 11, 8, 7, 11, 11, 6, 12, 27, 0)
s = 188: (0, 3, 10, 12, 10, 8, 16, 22, 9, 15, 37, 0)
s = 189: (0, 4, 8, 9, 8, 9, 12, 11, 5, 8, 20, 0)
s = 190: (0, 3, 6, 17, 12, 7, 12, 10, 7, 8, 26, 0)
s = 191: (0, 3, 9, 15, 6, 8, 12, 8, 10, 7, 27, 0)
s = 192: (0, 3, 8, 12, 9, 7, 10, 12, 5, 8, 27, 0)
s = 193: (0, 4, 6, 14, 11, 7, 12, 12, 7, 19, 36, 0)
s = 194: (0, 4, 8, 10, 6, 7, 9, 7, 13, 12, 19, 0)
s = 195: (0, 4, 11, 10, 6, 7, 10, 11, 9, 9, 21, 0)
s = 196: (0, 7, 9, 9, 6, 9, 18, 15, 6, 18, 20, 0)
s = 197: (0, 4, 8, 11, 5, 6, 10, 17, 7, 11, 25, 0)
s = 198: (0, 6, 10, 11, 11, 7, 16, 11, 7, 11, 24, 0)
s = 199: (0, 3, 10, 9, 7, 6, 9, 19, 8, 19, 26, 0)
s = 200: (0, 7, 6, 9, 7, 9, 9, 9, 5, 13, 31, 0)
------------------------------------------------------------------------
RESOURCE k = 2
s = 1: (0, 9, 5, 15, 16, 8, 5, 17, 6, 23, 18, 0)
s = 2: (0, 9, 11, 17, 18, 7, 7, 16, 8, 18, 14, 0)
s = 3: (0, 9, 9, 11, 36, 6, 7, 11, 7, 34, 11, 0)
s = 4: (0, 9, 7, 20, 21, 7, 6, 12, 7, 31, 15, 0)
s = 5: (0, 5, 7, 15, 27, 7, 9, 9, 7, 35, 28, 0)
s = 6: (0, 12, 8, 20, 16, 5, 9, 10, 6, 35, 15, 0)
s = 7: (0, 5, 12, 15, 20, 8, 9, 7, 6, 34, 20, 0)
s = 8: (0, 7, 10, 15, 15, 9, 11, 12, 5, 25, 21, 0)
s = 9: (0, 9, 6, 16, 23, 9, 6, 9, 4, 27, 36, 0)
s = 10: (0, 7, 7, 23, 19, 7, 6, 11, 6, 33, 16, 0)
s = 11: (0, 6, 7, 16, 16, 7, 7, 9, 6, 39, 15, 0)
s = 12: (0, 8, 10, 16, 15, 11, 6, 14, 6, 19, 22, 0)
s = 13: (0, 10, 11, 17, 14, 9, 5, 16, 5, 25, 18, 0)
s = 14: (0, 10, 7, 19, 18, 6, 9, 9, 6, 35, 15, 0)
s = 15: (0, 11, 5, 22, 21, 5, 9, 10, 8, 30, 34, 0)
s = 16: (0, 7, 6, 17, 15, 9, 6, 9, 8, 30, 19, 0)
s = 17: (0, 5, 9, 16, 17, 10, 10, 14, 3, 22, 20, 0)
s = 18: (0, 8, 10, 28, 30, 8, 9, 7, 7, 31, 26, 0)
s = 19: (0, 9, 5, 12, 31, 10, 7, 12, 7, 29, 21, 0)
s = 20: (0, 6, 11, 13, 19, 7, 9, 11, 6, 18, 21, 0)
s = 21: (0, 7, 9, 15, 16, 7, 13, 12, 6, 19, 14, 0)
s = 22: (0, 8, 7, 14, 39, 9, 6, 12, 4, 34, 20, 0)
s = 23: (0, 6, 6, 24, 21, 6, 6, 10, 4, 41, 18, 0)
s = 24: (0, 10, 8, 16, 22, 10, 6, 22, 4, 17, 24, 0)
s = 25: (0, 7, 7, 19, 11, 7, 8, 15, 6, 18, 12, 0)
s = 26: (0, 5, 8, 13, 13, 8, 11, 9, 8, 39, 12, 0)
s = 27: (0, 8, 8, 15, 15, 8, 9, 9, 5, 18, 22, 0)
s = 28: (0, 10, 5, 19, 22, 8, 6, 15, 6, 17, 13, 0)
s = 29: (0, 9, 12, 18, 19, 14, 7, 17, 5, 21, 21, 0)
s = 30: (0, 11, 9, 12, 17, 10, 11, 15, 4, 22, 13, 0)
s = 31: (0, 7, 9, 24, 25, 9, 9, 20, 8, 30, 21, 0)
s = 32: (0, 6, 10, 20, 14, 13, 8, 10, 3, 27, 14, 0)
s = 33: (0, 5, 7, 19, 31, 5, 7, 16, 6, 41, 24, 0)
s = 34: (0, 8, 13, 18, 14, 7, 7, 14, 5, 40, 15, 0)
s = 35: (0, 6, 5, 24, 30, 10, 10, 10, 5, 32, 12, 0)
s = 36: (0, 8, 6, 12, 16, 7, 8, 14, 4, 17, 23, 0)
s = 37: (0, 11, 9, 17, 17, 13, 9, 16, 3, 25, 11, 0)
s = 38: (0, 11, 13, 19, 20, 10, 11, 13, 8, 23, 13, 0)
s = 39: (0, 13, 8, 23, 15, 8, 6, 15, 4, 41, 17, 0)
s = 40: (0, 11, 8, 24, 17, 9, 11, 17, 5, 26, 24, 0)
s = 41: (0, 11, 7, 15, 23, 10, 5, 14, 7, 21, 15, 0)
s = 42: (0, 7, 10, 15, 16, 8, 7, 14, 5, 39, 17, 0)
s = 43: (0, 10, 8, 14, 17, 9, 8, 13, 5, 15, 16, 0)
s = 44: (0, 9, 5, 22, 35, 6, 5, 11, 6, 44, 25, 0)
s = 45: (0, 7, 13, 11, 16, 9, 9, 19, 5, 24, 22, 0)
s = 46: (0, 8, 8, 17, 28, 9, 6, 18, 8, 24, 17, 0)
s = 47: (0, 10, 9, 14, 15, 9, 10, 9, 4, 35, 22, 0)
s = 48: (0, 10, 6, 16, 15, 9, 9, 17, 4, 28, 23, 0)
s = 49: (0, 11, 6, 14, 14, 6, 10, 13, 6, 23, 22, 0)
s = 50: (0, 8, 8, 21, 31, 8, 9, 11, 5, 24, 13, 0)
s = 51: (0, 6, 9, 27, 12, 6, 7, 14, 9, 30, 13, 0)
s = 52: (0, 9, 14, 20, 16, 8, 7, 13, 5, 17, 19, 0)
s = 53: (0, 6, 9, 23, 24, 6, 8, 8, 6, 20, 19, 0)
s = 54: (0, 5, 7, 15, 19, 11, 7, 13, 7, 21, 13, 0)
s = 55: (0, 11, 6, 14, 20, 8, 7, 13, 4, 27, 25, 0)
s = 56: (0, 7, 9, 15, 24, 9, 5, 15, 4, 14, 17, 0)
s = 57: (0, 6, 12, 15, 18, 9, 6, 7, 5, 35, 20, 0)
s = 58: (0, 11, 9, 13, 20, 7, 9, 13, 8, 43, 18, 0)
s = 59: (0, 7, 11, 15, 13, 6, 11, 13, 4, 30, 22, 0)
s = 60: (0, 11, 9, 28, 25, 13, 9, 10, 6, 28, 20, 0)
s = 61: (0, 10, 15, 20, 14, 5, 10, 9, 6, 34, 23, 0)
s = 62: (0, 6, 8, 10, 33, 7, 10, 9, 5, 25, 23, 0)
s = 63: (0, 6, 8, 18, 21, 13, 7, 18, 6, 33, 20, 0)
s = 64: (0, 8, 6, 21, 21, 9, 8, 16, 4, 15, 15, 0)
s = 65: (0, 9, 10, 16, 21, 5, 13, 13, 5, 17, 15, 0)
s = 66: (0, 6, 6, 17, 22, 12, 6, 14, 6, 27, 16, 0)
s = 67: (0, 14, 6, 19, 29, 6, 7, 18, 4, 35, 22, 0)
s = 68: (0, 11, 7, 15, 21, 6, 11, 9, 4, 29, 15, 0)
s = 69: (0, 12, 7, 22, 20, 6, 9, 19, 6, 23, 12, 0)
s = 70: (0, 9, 10, 15, 20, 6, 11, 11, 4, 16, 27, 0)
s = 71: (0, 13, 9, 22, 20, 12, 10, 7, 4, 22, 19, 0)
s = 72: (0, 8, 7, 26, 22, 7, 11, 9, 7, 37, 29, 0)
s = 73: (0, 6, 5, 23, 14, 9, 7, 8, 7, 36, 17, 0)
s = 74: (0, 14, 7, 15, 25, 11, 5, 15, 5, 43, 15, 0)
s = 75: (0, 6, 8, 14, 19, 6, 9, 18, 6, 33, 23, 0)
s = 76: (0, 10, 9, 11, 12, 6, 8, 11, 5, 34, 18, 0)
s = 77: (0, 8, 7, 17, 33, 10, 10, 14, 8, 20, 19, 0)
s = 78: (0, 7, 7, 19, 16, 10, 13, 8, 5, 26, 32, 0)
s = 79: (0, 6, 11, 9, 26, 7, 8, 10, 4, 30, 22, 0)
s = 80: (0, 5, 11, 11, 31, 9, 7, 17, 4, 29, 14, 0)
s = 81: (0, 5, 7, 24, 14, 14, 10, 13, 5, 37, 23, 0)
s = 82: (0, 6, 6, 18, 19, 6, 9, 9, 5, 22, 21, 0)
s = 83: (0, 8, 10, 16, 18, 13, 6, 17, 5, 33, 13, 0)
s = 84: (0, 5, 7, 19, 19, 9, 10, 7, 6, 21, 16, 0)
s = 85: (0, 6, 6, 16, 13, 10, 12, 11, 4, 20, 22, 0)
s = 86: (0, 7, 7, 22, 31, 7, 6, 20, 7, 42, 17, 0)
s = 87: (0, 7, 9, 13, 23, 10, 7, 18, 7, 28, 36, 0)
s = 88: (0, 8, 10, 22, 22, 6, 9, 14, 8, 27, 22, 0)
s = 89: (0, 5, 7, 14, 17, 7, 10, 17, 7, 20, 16, 0)
s = 90: (0, 6, 7, 9, 19, 11, 10, 14, 4, 38, 25, 0)
s = 91: (0, 5, 6, 18, 23, 7, 9, 10, 7, 23, 22, 0)
s = 92: (0, 8, 7, 18, 20, 8, 9, 9, 5, 44, 20, 0)
s = 93: (0, 9, 11, 22, 21, 9, 13, 8, 6, 24, 29, 0)
s = 94: (0, 13, 8, 22, 22, 8, 8, 10, 6, 29, 17, 0)
s = 95: (0, 7, 10, 20, 31, 7, 8, 15, 5, 32, 16, 0)
s = 96: (0, 6, 11, 11, 16, 14, 5, 19, 4, 33, 16, 0)
s = 97: (0, 9, 13, 19, 16, 10, 11, 13, 6, 24, 13, 0)
s = 98: (0, 6, 6, 17, 16, 7, 8, 10, 4, 40, 19, 0)
s = 99: (0, 10, 8, 14, 18, 10, 9, 18, 6, 27, 27, 0)
s = 100: (0, 5, 9, 16, 18, 8, 9, 20, 5, 27, 30, 0)
s = 101: (0, 7, 6, 15, 17, 12, 10, 12, 5, 33, 15, 0)
s = 102: (0, 7, 8, 12, 25, 15, 12, 10, 5, 44, 13, 0)
s = 103: (0, 5, 9, 12, 22, 9, 11, 12, 7, 31, 16, 0)
s = 104: (0, 9, 7, 12, 18, 7, 6, 10, 6, 32, 20, 0)
s = 105: (0, 7, 9, 18, 23, 10, 5, 10, 4, 35, 18, 0)
s = 106: (0, 11, 7, 23, 22, 10, 7, 11, 4, 28, 25, 0)
s = 107: (0, 6, 7, 17, 16, 10, 8, 7, 7, 23, 15, 0)
s = 108: (0, 5, 11, 10, 17, 5, 6, 17, 7, 27, 24, 0)
s = 109: (0, 11, 9, 17, 34, 10, 6, 9, 6, 33, 14, 0)
s = 110: (0, 9, 8, 9, 19, 8, 6, 20, 4, 21, 22, 0)
s = 111: (0, 7, 6, 19, 21, 9, 7, 10, 7, 36, 32, 0)
s = 112: (0, 9, 7, 14, 13, 11, 5, 15, 5, 34, 19, 0)
s = 113: (0, 7, 6, 12, 26, 9, 11, 15, 3, 14, 26, 0)
s = 114: (0, 6, 7, 23, 31, 9, 9, 12, 4, 25, 20, 0)
s = 115: (0, 5, 8, 19, 29, 9, 12, 10, 7, 36, 20, 0)
s = 116: (0, 7, 6, 11, 18, 9, 6, 10, 5, 19, 26, 0)
s = 117: (0, 9, 9, 23, 17, 6, 9, 12, 8, 34, 14, 0)
s = 118: (0, 10, 11, 13, 30, 10, 15, 10, 5, 26, 12, 0)
s = 119: (0, 10, 8, 25, 19, 10, 10, 11, 3, 31, 17, 0)
s = 120: (0, 15, 8, 22, 20, 8, 6, 10, 5, 19, 21, 0)
s = 121: (0, 7, 11, 15, 22, 9, 13, 13, 7, 20, 19, 0)
s = 122: (0, 11, 8, 14, 30, 7, 6, 12, 6, 21, 14, 0)
s = 123: (0, 8, 8, 11, 21, 14, 9, 19, 4, 19, 18, 0)
s = 124: (0, 9, 6, 11, 19, 7, 8, 10, 5, 30, 25, 0)
s = 125: (0, 7, 8, 18, 14, 12, 10, 13, 7, 35, 22, 0)
s = 126: (0, 8, 7, 11, 16, 9, 11, 15, 5, 23, 22, 0)
s = 127: (0, 8, 7, 11, 17, 7, 9, 15, 4, 27, 37, 0)
s = 128: (0, 6, 8, 15, 20, 8, 9, 11, 4, 23, 21, 0)
s = 129: (0, 8, 7, 13, 18, 8, 8, 10, 5, 17, 19, 0)
s = 130: (0, 5, 8, 12, 25, 7, 6, 12, 5, 33, 38, 0)
s = 131: (0, 6, 5, 17, 33, 7, 7, 18, 6, 35, 26, 0)
s = 132: (0, 8, 10, 11, 16, 10, 7, 14, 4, 22, 26, 0)
s = 133: (0, 6, 6, 16, 22, 8, 7, 15, 4, 33, 23, 0)
s = 134: (0, 8, 6, 12, 16, 6, 13, 18, 5, 19, 24, 0)
s = 135: (0, 8, 9, 21, 21, 11, 9, 14, 5, 28, 15, 0)
s = 136: (0, 13, 8, 21, 21, 7, 6, 11, 10, 38, 21, 0)
s = 137: (0, 6, 9, 21, 17, 7, 6, 17, 5, 39, 21, 0)
s = 138: (0, 11, 7, 22, 13, 8, 11, 11, 8, 40, 18, 0)
s = 139: (0, 6, 14, 19, 14, 11, 7, 15, 4, 24, 26, 0)
s = 140: (0, 10, 9, 19, 15, 6, 8, 15, 4, 38, 36, 0)
s = 141: (0, 12, 14, 16, 19, 8, 6, 15, 5, 27, 17, 0)
s = 142: (0, 6, 7, 22, 22, 9, 6, 9, 4, 25, 23, 0)
s = 143: (0, 6, 8, 9, 24, 9, 8, 14, 5, 41, 11, 0)
s = 144: (0, 11, 8, 11, 13, 16, 8, 16, 5, 34, 22, 0)
s = 145: (0, 12, 8, 19, 29, 12, 5, 13, 5, 20, 14, 0)
s = 146: (0, 7, 9, 9, 16, 5, 9, 7, 4, 26, 19, 0)
s = 147: (0, 8, 9, 29, 17, 6, 15, 14, 8, 32, 17, 0)
s = 148: (0, 9, 7, 11, 14, 10, 6, 11, 6, 40, 16, 0)
s = 149: (0, 9, 8, 11, 20, 11, 8, 15, 7, 24, 21, 0)
s = 150: (0, 7, 9, 13, 27, 8, 7, 10, 9, 21, 24, 0)
s = 151: (0, 9, 6, 13, 16, 12, 6, 11, 6, 17, 22, 0)
s = 152: (0, 8, 8, 19, 17, 7, 7, 10, 5, 42, 16, 0)
s = 153: (0, 7, 12, 14, 13, 8, 5, 10, 5, 26, 14, 0)
s = 154: (0, 7, 8, 19, 16, 9, 8, 9, 7, 45, 21, 0)
s = 155: (0, 8, 9, 18, 18, 8, 9, 10, 5, 24, 18, 0)
s = 156: (0, 8, 10, 12, 15, 8, 7, 18, 7, 22, 11, 0)
s = 157: (0, 9, 7, 25, 14, 8, 7, 13, 5, 27, 23, 0)
s = 158: (0, 8, 7, 19, 16, 8, 9, 14, 4, 32, 16, 0)
s = 159: (0, 13, 6, 17, 24, 9, 7, 18, 6, 25, 20, 0)
s = 160: (0, 7, 6, 21, 23, 7, 9, 7, 5, 37, 19, 0)
s = 161: (0, 9, 5, 30, 28, 6, 5, 17, 7, 16, 16, 0)
s = 162: (0, 8, 7, 30, 21, 8, 11, 18, 6, 30, 15, 0)
s = 163: (0, 5, 7, 20, 27, 7, 10, 17, 4, 35, 27, 0)
s = 164: (0, 7, 10, 19, 20, 7, 10, 11, 7, 34, 16, 0)
s = 165: (0, 6, 5, 12, 20, 8, 7, 12, 5, 31, 28, 0)
s = 166: (0, 7, 7, 13, 20, 8, 6, 11, 4, 18, 13, 0)
s = 167: (0, 11, 8, 21, 14, 10, 10, 8, 5, 15, 26, 0)
s = 168: (0, 11, 8, 22, 16, 6, 10, 15, 5, 23, 26, 0)
s = 169: (0, 6, 13, 14, 27, 10, 8, 15, 9, 41, 20, 0)
s = 170: (0, 11, 10, 11, 25, 14, 12, 16, 7, 20, 21, 0)
s = 171: (0, 9, 7, 16, 12, 9, 10, 16, 9, 32, 24, 0)
s = 172: (0, 9, 11, 17, 28, 7, 7, 14, 7, 18, 16, 0)
s = 173: (0, 10, 7, 11, 25, 13, 7, 10, 5, 27, 23, 0)
s = 174: (0, 14, 11, 16, 18, 7, 13, 15, 7, 31, 24, 0)
s = 175: (0, 5, 10, 17, 19, 12, 7, 9, 8, 32, 16, 0)
s = 176: (0, 10, 6, 15, 14, 9, 6, 17, 5, 21, 25, 0)
s = 177: (0, 7, 6, 13, 13, 11, 9, 8, 7, 25, 30, 0)
s = 178: (0, 7, 5, 14, 16, 9, 12, 14, 5, 28, 16, 0)
s = 179: (0, 8, 9, 21, 16, 7, 8, 18, 5, 33, 26, 0)
s = 180: (0, 6, 10, 18, 12, 11, 7, 13, 4, 33, 20, 0)
s = 181: (0, 8, 9, 23, 21, 6, 6, 12, 4, 22, 21, 0)
s = 182: (0, 10, 6, 12, 24, 11, 7, 18, 7, 29, 15, 0)
s = 183: (0, 8, 7, 23, 27, 7, 9, 15, 5, 43, 31, 0)
s = 184: (0, 8, 7, 12, 26, 9, 8, 12, 4, 31, 19, 0)
s = 185: (0, 10, 7, 14, 16, 7, 14, 13, 4, 43, 32, 0)
s = 186: (0, 12, 10, 15, 17, 12, 9, 14, 6, 29, 38, 0)
s = 187: (0, 5, 6, 14, 19, 7, 8, 11, 4, 26, 22, 0)
s = 188: (0, 6, 12, 16, 23, 8, 11, 22, 6, 34, 30, 0)
s = 189: (0, 8, 9, 12, 20, 9, 8, 11, 3, 18, 16, 0)
s = 190: (0, 6, 6, 23, 29, 7, 8, 10, 4, 16, 21, 0)
s = 191: (0, 5, 10, 20, 15, 8, 8, 8, 6, 16, 21, 0)
s = 192: (0, 5, 9, 16, 22, 7, 7, 12, 3, 18, 22, 0)
s = 193: (0, 8, 7, 18, 26, 7, 8, 12, 5, 41, 29, 0)
s = 194: (0, 7, 9, 13, 14, 7, 6, 7, 8, 27, 15, 0)
s = 195: (0, 8, 13, 14, 15, 7, 7, 11, 6, 20, 17, 0)
s = 196: (0, 13, 10, 11, 14, 9, 12, 15, 4, 39, 16, 0)
s = 197: (0, 7, 9, 15, 12, 6, 7, 17, 5, 23, 20, 0)
s = 198: (0, 12, 11, 15, 26, 7, 11, 11, 4, 25, 19, 0)
s = 199: (0, 5, 12, 11, 16, 6, 6, 19, 5, 43, 21, 0)
s = 200: (0, 13, 7, 12, 17, 9, 6, 9, 3, 28, 25, 0)
------------------------------------------------------------------------
RESOURCE k = 3
s = 1: (0, 11, 4, 16, 13, 7, 6, 43, 7, 15, 22, 0)
s = 2: (0, 11, 9, 19, 14, 6, 9, 41, 9, 12, 18, 0)
s = 3: (0, 11, 8, 12, 29, 5, 8, 29, 8, 23, 13, 0)
s = 4: (0, 11, 6, 22, 17, 6, 7, 31, 9, 21, 19, 0)
s = 5: (0, 6, 6, 17, 22, 6, 11, 22, 8, 23, 35, 0)
s = 6: (0, 14, 7, 22, 13, 5, 12, 27, 8, 23, 19, 0)
s = 7: (0, 6, 11, 17, 16, 7, 11, 19, 7, 23, 25, 0)
s = 8: (0, 9, 9, 17, 12, 8, 13, 30, 5, 17, 26, 0)
s = 9: (0, 11, 5, 18, 19, 8, 7, 22, 4, 18, 45, 0)
s = 10: (0, 9, 6, 26, 15, 6, 8, 27, 7, 22, 20, 0)
s = 11: (0, 8, 6, 18, 13, 6, 9, 24, 7, 26, 19, 0)
s = 12: (0, 10, 9, 18, 12, 9, 7, 37, 7, 13, 28, 0)
s = 13: (0, 13, 10, 19, 11, 8, 7, 43, 6, 17, 22, 0)
s = 14: (0, 12, 7, 21, 14, 5, 11, 23, 7, 23, 19, 0)
s = 15: (0, 14, 5, 25, 17, 4, 11, 25, 10, 20, 42, 0)
s = 16: (0, 9, 6, 19, 12, 8, 7, 22, 10, 20, 24, 0)
s = 17: (0, 6, 8, 18, 14, 9, 13, 38, 4, 15, 25, 0)
s = 18: (0, 10, 9, 31, 24, 7, 12, 18, 8, 21, 32, 0)
s = 19: (0, 12, 5, 13, 25, 9, 8, 31, 8, 19, 26, 0)
s = 20: (0, 8, 9, 14, 16, 6, 11, 29, 7, 12, 26, 0)
s = 21: (0, 9, 8, 16, 13, 6, 16, 32, 7, 13, 18, 0)
s = 22: (0, 10, 6, 16, 31, 8, 8, 30, 5, 23, 25, 0)
s = 23: (0, 8, 5, 26, 17, 5, 7, 27, 5, 28, 22, 0)
s = 24: (0, 13, 7, 18, 18, 9, 7, 59, 5, 12, 29, 0)
s = 25: (0, 9, 7, 21, 9, 6, 10, 38, 7, 12, 15, 0)
s = 26: (0, 7, 7, 15, 11, 7, 13, 23, 10, 26, 15, 0)
s = 27: (0, 9, 7, 17, 12, 7, 12, 23, 6, 12, 27, 0)
s = 28: (0, 12, 4, 21, 18, 7, 7, 38, 7, 11, 17, 0)
s = 29: (0, 12, 11, 20, 15, 12, 9, 44, 6, 14, 26, 0)
s = 30: (0, 14, 8, 13, 13, 9, 13, 38, 5, 15, 16, 0)
s = 31: (0, 8, 8, 27, 20, 8, 11, 52, 10, 20, 26, 0)
s = 32: (0, 8, 8, 22, 12, 12, 10, 25, 4, 18, 18, 0)
s = 33: (0, 6, 6, 22, 25, 5, 8, 43, 7, 27, 30, 0)
s = 34: (0, 10, 12, 20, 11, 6, 9, 36, 6, 27, 18, 0)
s = 35: (0, 8, 4, 27, 24, 9, 12, 27, 6, 21, 15, 0)
s = 36: (0, 10, 5, 13, 13, 6, 10, 36, 5, 12, 29, 0)
s = 37: (0, 14, 8, 19, 14, 11, 11, 43, 4, 17, 14, 0)
s = 38: (0, 14, 12, 22, 16, 9, 14, 34, 9, 16, 16, 0)
s = 39: (0, 16, 7, 25, 12, 7, 8, 38, 5, 28, 21, 0)
s = 40: (0, 14, 7, 26, 14, 8, 14, 44, 6, 18, 30, 0)
s = 41: (0, 14, 6, 17, 18, 9, 6, 38, 9, 14, 19, 0)
s = 42: (0, 8, 9, 17, 13, 7, 8, 38, 6, 26, 21, 0)
s = 43: (0, 12, 7, 15, 14, 8, 10, 34, 6, 10, 20, 0)
s = 44: (0, 11, 5, 25, 28, 5, 7, 27, 7, 29, 31, 0)
s = 45: (0, 8, 12, 12, 13, 8, 11, 50, 5, 16, 27, 0)
s = 46: (0, 10, 7, 19, 23, 8, 7, 48, 9, 16, 21, 0)
s = 47: (0, 12, 8, 15, 12, 8, 12, 24, 5, 24, 27, 0)
s = 48: (0, 13, 6, 18, 12, 8, 12, 44, 5, 19, 29, 0)
s = 49: (0, 13, 5, 16, 11, 5, 13, 34, 7, 16, 27, 0)
s = 50: (0, 10, 7, 24, 25, 7, 11, 29, 6, 16, 16, 0)
s = 51: (0, 7, 8, 30, 10, 5, 9, 36, 11, 20, 16, 0)
s = 52: (0, 12, 12, 23, 13, 7, 8, 34, 6, 11, 24, 0)
s = 53: (0, 8, 8, 26, 19, 5, 10, 20, 8, 14, 24, 0)
s = 54: (0, 6, 6, 16, 15, 10, 8, 33, 8, 14, 16, 0)
s = 55: (0, 14, 5, 16, 16, 7, 8, 34, 5, 18, 31, 0)
s = 56: (0, 9, 8, 17, 19, 8, 6, 40, 4, 10, 21, 0)
s = 57: (0, 8, 10, 17, 14, 8, 8, 18, 6, 23, 24, 0)
s = 58: (0, 13, 8, 15, 16, 6, 11, 34, 9, 29, 22, 0)
s = 59: (0, 9, 10, 17, 11, 5, 14, 33, 5, 20, 27, 0)
s = 60: (0, 13, 8, 31, 20, 12, 11, 25, 7, 19, 24, 0)
s = 61: (0, 13, 13, 22, 11, 4, 12, 24, 7, 23, 29, 0)
s = 62: (0, 8, 7, 11, 27, 6, 12, 22, 6, 17, 29, 0)
s = 63: (0, 8, 7, 20, 17, 12, 9, 47, 7, 22, 24, 0)
s = 64: (0, 10, 5, 24, 17, 8, 10, 42, 5, 10, 19, 0)
s = 65: (0, 12, 9, 18, 17, 4, 16, 33, 6, 12, 19, 0)
s = 66: (0, 7, 5, 20, 18, 10, 7, 35, 7, 18, 20, 0)
s = 67: (0, 18, 6, 22, 23, 5, 9, 47, 5, 24, 27, 0)
s = 68: (0, 14, 7, 17, 17, 5, 14, 23, 5, 19, 18, 0)
s = 69: (0, 15, 6, 25, 16, 5, 12, 51, 7, 16, 15, 0)
s = 70: (0, 11, 9, 17, 16, 6, 14, 30, 5, 11, 34, 0)
s = 71: (0, 16, 8, 25, 16, 11, 12, 19, 5, 15, 23, 0)
s = 72: (0, 10, 6, 29, 18, 6, 13, 24, 8, 25, 36, 0)
s = 73: (0, 8, 5, 26, 11, 8, 9, 22, 8, 24, 22, 0)
s = 74: (0, 17, 6, 17, 20, 10, 7, 38, 6, 29, 19, 0)
s = 75: (0, 7, 7, 15, 15, 5, 11, 46, 7, 22, 28, 0)
s = 76: (0, 13, 8, 13, 10, 5, 10, 30, 6, 23, 22, 0)
s = 77: (0, 9, 6, 19, 26, 9, 12, 36, 9, 13, 23, 0)
s = 78: (0, 8, 6, 21, 13, 9, 16, 21, 5, 18, 40, 0)
s = 79: (0, 8, 10, 10, 21, 6, 10, 25, 4, 20, 28, 0)
s = 80: (0, 7, 10, 12, 25, 8, 9, 45, 5, 19, 17, 0)
s = 81: (0, 7, 6, 27, 11, 12, 13, 34, 6, 25, 29, 0)
s = 82: (0, 7, 6, 20, 15, 5, 11, 23, 6, 15, 26, 0)
s = 83: (0, 10, 9, 18, 14, 12, 7, 43, 6, 22, 16, 0)
s = 84: (0, 6, 6, 21, 15, 8, 13, 18, 7, 14, 19, 0)
s = 85: (0, 8, 5, 18, 10, 9, 15, 27, 5, 13, 27, 0)
s = 86: (0, 8, 6, 24, 25, 6, 7, 53, 8, 28, 21, 0)
s = 87: (0, 8, 8, 15, 18, 9, 9, 48, 8, 19, 45, 0)
s = 88: (0, 10, 9, 25, 17, 5, 11, 36, 9, 18, 27, 0)
s = 89: (0, 6, 6, 16, 14, 6, 13, 46, 9, 13, 20, 0)
s = 90: (0, 8, 6, 10, 15, 10, 12, 36, 4, 25, 31, 0)
s = 91: (0, 6, 5, 20, 19, 7, 11, 26, 8, 16, 27, 0)
s = 92: (0, 10, 6, 21, 16, 7, 11, 22, 6, 29, 25, 0)
s = 93: (0, 11, 10, 25, 17, 8, 16, 20, 7, 16, 36, 0)
s = 94: (0, 16, 7, 25, 18, 7, 9, 25, 7, 20, 21, 0)
s = 95: (0, 9, 9, 22, 25, 6, 10, 39, 6, 22, 20, 0)
s = 96: (0, 8, 10, 12, 13, 13, 7, 49, 5, 22, 20, 0)
s = 97: (0, 11, 11, 21, 13, 9, 14, 35, 7, 16, 16, 0)
s = 98: (0, 7, 6, 19, 13, 6, 10, 25, 5, 27, 23, 0)
s = 99: (0, 13, 7, 16, 15, 9, 11, 48, 7, 18, 34, 0)
s = 100: (0, 6, 8, 18, 15, 7, 11, 53, 5, 18, 37, 0)
s = 101: (0, 9, 5, 16, 14, 10, 12, 31, 5, 22, 18, 0)
s = 102: (0, 9, 7, 13, 20, 13, 15, 27, 6, 30, 17, 0)
s = 103: (0, 6, 8, 13, 18, 8, 13, 32, 8, 21, 20, 0)
s = 104: (0, 11, 7, 14, 15, 6, 8, 25, 8, 21, 25, 0)
s = 105: (0, 9, 8, 21, 19, 9, 7, 26, 5, 23, 23, 0)
s = 106: (0, 13, 6, 26, 17, 9, 8, 29, 5, 19, 31, 0)
s = 107: (0, 7, 6, 19, 13, 9, 10, 17, 8, 15, 19, 0)
s = 108: (0, 6, 9, 11, 14, 4, 8, 46, 8, 18, 30, 0)
s = 109: (0, 14, 8, 19, 27, 9, 7, 24, 7, 22, 18, 0)
s = 110: (0, 11, 7, 10, 15, 7, 7, 51, 5, 14, 27, 0)
s = 111: (0, 8, 5, 21, 17, 8, 9, 25, 9, 24, 39, 0)
s = 112: (0, 12, 6, 15, 10, 9, 7, 39, 6, 23, 24, 0)
s = 113: (0, 8, 6, 13, 21, 8, 13, 39, 4, 10, 33, 0)
s = 114: (0, 8, 6, 26, 25, 8, 12, 32, 5, 17, 25, 0)
s = 115: (0, 6, 7, 21, 23, 8, 15, 27, 8, 24, 24, 0)
s = 116: (0, 8, 6, 12, 14, 8, 7, 26, 5, 13, 32, 0)
s = 117: (0, 12, 8, 26, 14, 6, 11, 32, 9, 23, 18, 0)
s = 118: (0, 12, 9, 14, 24, 8, 18, 25, 6, 17, 15, 0)
s = 119: (0, 12, 7, 28, 16, 9, 12, 28, 4, 21, 21, 0)
s = 120: (0, 19, 7, 25, 16, 7, 7, 26, 5, 13, 27, 0)
s = 121: (0, 9, 10, 16, 18, 8, 16, 33, 8, 13, 24, 0)
s = 122: (0, 14, 7, 16, 24, 6, 7, 31, 7, 14, 18, 0)
s = 123: (0, 10, 7, 13, 17, 12, 12, 50, 4, 13, 22, 0)
s = 124: (0, 11, 5, 12, 16, 6, 9, 26, 6, 20, 31, 0)
s = 125: (0, 8, 7, 20, 11, 10, 12, 34, 8, 24, 27, 0)
s = 126: (0, 10, 6, 12, 13, 8, 14, 39, 6, 15, 27, 0)
s = 127: (0, 9, 7, 13, 14, 7, 12, 40, 4, 18, 46, 0)
s = 128: (0, 7, 7, 17, 16, 7, 11, 27, 4, 15, 27, 0)
s = 129: (0, 10, 6, 14, 14, 7, 10, 26, 6, 12, 24, 0)
s = 130: (0, 6, 7, 13, 20, 7, 7, 32, 6, 22, 47, 0)
s = 131: (0, 8, 5, 19, 26, 6, 9, 47, 7, 24, 32, 0)
s = 132: (0, 10, 9, 13, 13, 9, 9, 36, 4, 15, 32, 0)
s = 133: (0, 7, 5, 18, 18, 7, 9, 39, 5, 22, 28, 0)
s = 134: (0, 10, 6, 13, 13, 5, 16, 47, 6, 13, 30, 0)
s = 135: (0, 10, 8, 23, 17, 10, 12, 37, 6, 19, 18, 0)
s = 136: (0, 16, 7, 23, 17, 6, 8, 29, 12, 26, 26, 0)
s = 137: (0, 7, 8, 24, 14, 6, 7, 43, 6, 26, 26, 0)
s = 138: (0, 14, 6, 25, 11, 7, 14, 28, 10, 27, 22, 0)
s = 139: (0, 8, 12, 21, 11, 9, 8, 39, 5, 16, 33, 0)
s = 140: (0, 12, 8, 21, 12, 5, 10, 40, 4, 25, 45, 0)
s = 141: (0, 14, 13, 18, 15, 7, 8, 40, 6, 18, 22, 0)
s = 142: (0, 8, 6, 25, 17, 8, 8, 23, 4, 17, 28, 0)
s = 143: (0, 7, 7, 10, 20, 8, 10, 35, 6, 28, 14, 0)
s = 144: (0, 13, 7, 12, 11, 14, 10, 43, 6, 23, 28, 0)
s = 145: (0, 14, 7, 21, 23, 11, 7, 33, 6, 14, 17, 0)
s = 146: (0, 9, 8, 10, 13, 5, 11, 19, 5, 18, 24, 0)
s = 147: (0, 10, 8, 32, 14, 5, 18, 37, 9, 21, 21, 0)
s = 148: (0, 12, 6, 12, 11, 9, 7, 29, 7, 27, 20, 0)
s = 149: (0, 11, 7, 13, 16, 10, 10, 40, 8, 16, 26, 0)
s = 150: (0, 8, 8, 15, 22, 7, 9, 26, 10, 14, 30, 0)
s = 151: (0, 11, 5, 15, 13, 10, 7, 29, 7, 12, 28, 0)
s = 152: (0, 9, 7, 22, 14, 6, 9, 26, 5, 28, 20, 0)
s = 153: (0, 9, 10, 16, 10, 7, 7, 25, 6, 17, 18, 0)
s = 154: (0, 8, 7, 21, 13, 8, 10, 24, 8, 30, 26, 0)
s = 155: (0, 10, 8, 21, 15, 7, 12, 27, 6, 16, 23, 0)
s = 156: (0, 9, 9, 13, 12, 7, 8, 48, 8, 15, 14, 0)
s = 157: (0, 11, 6, 28, 11, 7, 8, 33, 5, 18, 28, 0)
s = 158: (0, 10, 6, 21, 13, 7, 11, 37, 5, 21, 20, 0)
s = 159: (0, 16, 5, 19, 20, 8, 9, 47, 8, 17, 25, 0)
s = 160: (0, 9, 6, 24, 18, 6, 11, 19, 6, 25, 23, 0)
s = 161: (0, 11, 5, 34, 23, 5, 6, 45, 9, 11, 20, 0)
s = 162: (0, 9, 7, 33, 17, 7, 13, 48, 7, 20, 18, 0)
s = 163: (0, 7, 6, 23, 21, 6, 12, 45, 5, 23, 34, 0)
s = 164: (0, 9, 8, 22, 16, 6, 12, 28, 9, 23, 20, 0)
s = 165: (0, 7, 5, 13, 16, 7, 9, 30, 6, 21, 35, 0)
s = 166: (0, 8, 6, 15, 16, 7, 7, 29, 5, 12, 16, 0)
s = 167: (0, 14, 7, 24, 11, 9, 12, 21, 5, 10, 33, 0)
s = 168: (0, 14, 7, 25, 13, 6, 13, 38, 6, 16, 33, 0)
s = 169: (0, 8, 12, 16, 21, 9, 10, 40, 10, 27, 25, 0)
s = 170: (0, 13, 9, 13, 20, 12, 15, 41, 9, 14, 26, 0)
s = 171: (0, 11, 6, 18, 9, 8, 12, 41, 11, 22, 30, 0)
s = 172: (0, 11, 10, 19, 23, 6, 9, 37, 9, 12, 20, 0)
s = 173: (0, 13, 6, 12, 20, 11, 9, 27, 6, 18, 28, 0)
s = 174: (0, 17, 10, 18, 14, 6, 16, 39, 9, 21, 30, 0)
s = 175: (0, 7, 9, 19, 15, 11, 8, 23, 9, 22, 20, 0)
s = 176: (0, 12, 6, 17, 12, 8, 7, 45, 6, 14, 31, 0)
s = 177: (0, 9, 5, 15, 11, 10, 11, 20, 8, 17, 37, 0)
s = 178: (0, 9, 5, 16, 13, 8, 15, 37, 6, 19, 20, 0)
s = 179: (0, 9, 8, 24, 13, 6, 10, 47, 5, 22, 33, 0)
s = 180: (0, 7, 9, 20, 10, 10, 9, 34, 5, 22, 25, 0)
s = 181: (0, 10, 8, 26, 17, 5, 8, 30, 5, 15, 27, 0)
s = 182: (0, 13, 6, 14, 19, 10, 9, 47, 8, 20, 19, 0)
s = 183: (0, 10, 6, 25, 21, 6, 11, 39, 6, 29, 39, 0)
s = 184: (0, 10, 6, 13, 21, 8, 9, 32, 5, 21, 23, 0)
s = 185: (0, 13, 6, 16, 13, 6, 17, 35, 4, 29, 40, 0)
s = 186: (0, 14, 9, 17, 13, 10, 11, 36, 7, 19, 47, 0)
s = 187: (0, 6, 6, 16, 15, 6, 10, 29, 5, 18, 27, 0)
s = 188: (0, 7, 10, 18, 19, 7, 14, 58, 7, 23, 37, 0)
s = 189: (0, 10, 8, 13, 16, 8, 10, 28, 4, 12, 20, 0)
s = 190: (0, 7, 6, 25, 24, 6, 10, 25, 5, 11, 26, 0)
s = 191: (0, 6, 9, 23, 12, 7, 10, 22, 7, 11, 27, 0)
s = 192: (0, 6, 8, 18, 18, 6, 8, 31, 4, 12, 27, 0)
s = 193: (0, 10, 6, 21, 21, 6, 10, 31, 5, 28, 36, 0)
s = 194: (0, 9, 8, 15, 11, 6, 7, 18, 10, 18, 19, 0)
s = 195: (0, 10, 11, 15, 12, 6, 8, 28, 7, 13, 21, 0)
s = 196: (0, 16, 9, 13, 11, 8, 15, 40, 4, 26, 20, 0)
s = 197: (0, 8, 8, 17, 10, 5, 9, 44, 6, 16, 25, 0)
s = 198: (0, 15, 10, 17, 21, 6, 13, 30, 5, 17, 24, 0)
s = 199: (0, 7, 10, 13, 13, 5, 8, 50, 6, 29, 26, 0)
s = 200: (0, 16, 6, 13, 13, 8, 7, 24, 4, 19, 31, 0)
************************************************************************
ES/LS-VALUES:
jobnr.   ES(i)    LS(i)
------------------------------------------------------------------------
  0        0        0
  1        0       46
  2        0       58
  3        0       42
  4        3       46
  5        7       50
  6        3       48
  7        9       52
  8        7       68
  9        3       65
 10       16       60
 11       25       70
************************************************************************
BIG-M-VALUES:
M1 = 51, M2 = 132
************************************************************************
